NAME 
ROWS
 N  OBJ
 L  R0      
 L  R1      
 E  R2      
 E  R3      
 E  R4      
 E  R5      
 E  R6      
COLUMNS
    MARKER    'MARKER'                 'INTORG'
    I0(5)     OBJ       41
    I0(5)     R0        -184
    I0(5)     R1        96
    I0(5)     R2        2
    I0(5)     R3        13
    I0(5)     R6        1
    I1(5)     OBJ       86
    I1(5)     R0        84
    I1(5)     R1        -112
    I1(5)     R2        6
    I1(5)     R3        15
    I1(5)     R6        1
    MARKER    'MARKER'                 'INTEND'
    C2(5)     OBJ       2
    C2(5)     R0        9
    C2(5)     R1        1
    C2(5)     R3        17
    C2(5)     R4        5
    C2(5)     R5        4
    C3(5)     OBJ       -1
    C3(5)     R0        -10
    C3(5)     R1        8
    C3(5)     R2        8
    C3(5)     R3        2
    C3(5)     R5        5
    C4(5)     OBJ       -4
    C4(5)     R0        3
    C4(5)     R1        -9
    C4(5)     R2        18
    C4(5)     R3        2
    C4(5)     R5        17
    C5(1)     R2        1
    C6(1)     R3        1
    C7(1)     R4        1
    C8(1)     R5        1
    C9(1)     R6        1
RHS
    RHS1      R0        1.4294117647058822e+01
    RHS1      R1        -4.2882352941176471e+01
    RHS1      R2        93
    RHS1      R3        86
    RHS1      R4        60
    RHS1      R5        81
BOUNDS
 UP BND1      I0(5)     2
 UP BND1      I1(5)     2
ENDATA
